c generated by sgen
c see http://www.cs.qub.ac.uk/~i.spence/sgen
p cnf 97 204
-2 -3 -4 0
-1 -3 -4 0
-1 -2 -4 0
-1 -2 -3 0
-6 -7 -8 0
-5 -7 -8 0
-5 -6 -8 0
-5 -6 -7 0
-10 -11 -12 0
-9 -11 -12 0
-9 -10 -12 0
-9 -10 -11 0
-14 -15 -16 0
-13 -15 -16 0
-13 -14 -16 0
-13 -14 -15 0
-18 -19 -20 0
-17 -19 -20 0
-17 -18 -20 0
-17 -18 -19 0
-22 -23 -24 0
-21 -23 -24 0
-21 -22 -24 0
-21 -22 -23 0
-26 -27 -28 0
-25 -27 -28 0
-25 -26 -28 0
-25 -26 -27 0
-30 -31 -32 0
-29 -31 -32 0
-29 -30 -32 0
-29 -30 -31 0
-34 -35 -36 0
-33 -35 -36 0
-33 -34 -36 0
-33 -34 -35 0
-38 -39 -40 0
-37 -39 -40 0
-37 -38 -40 0
-37 -38 -39 0
-42 -43 -44 0
-41 -43 -44 0
-41 -42 -44 0
-41 -42 -43 0
-46 -47 -48 0
-45 -47 -48 0
-45 -46 -48 0
-45 -46 -47 0
-50 -51 -52 0
-49 -51 -52 0
-49 -50 -52 0
-49 -50 -51 0
-54 -55 -56 0
-53 -55 -56 0
-53 -54 -56 0
-53 -54 -55 0
-58 -59 -60 0
-57 -59 -60 0
-57 -58 -60 0
-57 -58 -59 0
-62 -63 -64 0
-61 -63 -64 0
-61 -62 -64 0
-61 -62 -63 0
-66 -67 -68 0
-65 -67 -68 0
-65 -66 -68 0
-65 -66 -67 0
-70 -71 -72 0
-69 -71 -72 0
-69 -70 -72 0
-69 -70 -71 0
-74 -75 -76 0
-73 -75 -76 0
-73 -74 -76 0
-73 -74 -75 0
-78 -79 -80 0
-77 -79 -80 0
-77 -78 -80 0
-77 -78 -79 0
-82 -83 -84 0
-81 -83 -84 0
-81 -82 -84 0
-81 -82 -83 0
-86 -87 -88 0
-85 -87 -88 0
-85 -86 -88 0
-85 -86 -87 0
-90 -91 -92 0
-89 -91 -92 0
-89 -90 -92 0
-89 -90 -91 0
-93 -94 -95 0
-93 -94 -96 0
-93 -94 -97 0
-93 -95 -96 0
-93 -95 -97 0
-93 -96 -97 0
-94 -95 -96 0
-94 -95 -97 0
-94 -96 -97 0
-95 -96 -97 0
40 81 91 0
88 81 91 0
88 40 91 0
88 40 81 0
71 78 25 0
29 78 25 0
29 71 25 0
29 71 78 0
56 76 63 0
8 76 63 0
8 56 63 0
8 56 76 0
55 50 37 0
4 50 37 0
4 55 37 0
4 55 50 0
53 59 20 0
16 59 20 0
16 53 20 0
16 53 59 0
51 31 73 0
96 31 73 0
96 51 73 0
96 51 31 0
62 17 27 0
93 17 27 0
93 62 27 0
93 62 17 0
33 49 57 0
5 49 57 0
5 33 57 0
5 33 49 0
46 2 70 0
12 2 70 0
12 46 70 0
12 46 2 0
60 84 94 0
41 84 94 0
41 60 94 0
41 60 84 0
47 65 43 0
36 65 43 0
36 47 43 0
36 47 65 0
14 1 32 0
44 1 32 0
44 14 32 0
44 14 1 0
13 66 6 0
87 66 6 0
87 13 6 0
87 13 66 0
7 80 90 0
95 80 90 0
95 7 90 0
95 7 80 0
92 54 72 0
67 54 72 0
67 92 72 0
67 92 54 0
15 35 11 0
28 35 11 0
28 15 11 0
28 15 35 0
83 77 64 0
68 77 64 0
68 83 64 0
68 83 77 0
97 26 86 0
24 26 86 0
24 97 86 0
24 97 26 0
89 48 23 0
18 48 23 0
18 89 23 0
18 89 48 0
10 85 42 0
74 85 42 0
74 10 42 0
74 10 85 0
45 39 30 0
58 39 30 0
58 45 30 0
58 45 39 0
22 38 69 0
61 38 69 0
61 22 69 0
61 22 38 0
19 79 52 0
9 79 52 0
9 19 52 0
9 19 79 0
34 3 82 0
34 3 21 0
34 3 75 0
34 82 21 0
34 82 75 0
34 21 75 0
3 82 21 0
3 82 75 0
3 21 75 0
82 21 75 0
